c Created with the Wolfram Language : www.wolfram.com
c 
p edge 70 467
e 1 3
e 2 5
e 5 6
e 3 8
e 4 8
e 7 10
e 4 11
e 2 12
e 4 12
e 6 12
e 4 13
e 8 13
e 9 13
e 11 13
e 6 14
e 13 14
e 13 15
e 14 15
e 13 16
e 4 17
e 5 17
e 15 17
e 2 18
e 4 18
e 13 18
e 10 19
e 12 19
e 4 20
e 5 20
e 6 20
e 6 21
e 11 21
e 12 21
e 14 21
e 16 21
e 12 22
e 15 22
e 3 23
e 8 23
e 10 23
e 12 23
e 15 23
e 17 23
e 22 23
e 2 24
e 19 24
e 20 24
e 10 25
e 17 25
e 19 25
e 21 25
e 3 26
e 4 26
e 7 26
e 12 26
e 16 26
e 18 26
e 25 26
e 1 27
e 5 27
e 15 27
e 25 27
e 1 28
e 16 28
e 18 28
e 19 28
e 24 28
e 25 28
e 3 29
e 5 29
e 8 29
e 9 29
e 11 29
e 12 29
e 15 29
e 16 29
e 7 30
e 9 30
e 15 30
e 20 30
e 22 30
e 23 30
e 24 30
e 1 31
e 17 31
e 18 31
e 20 31
e 23 31
e 3 32
e 15 32
e 16 32
e 21 32
e 27 32
e 11 33
e 15 33
e 16 33
e 20 33
e 21 33
e 22 33
e 26 33
e 3 34
e 20 34
e 21 34
e 33 34
e 1 35
e 4 35
e 6 35
e 8 35
e 11 35
e 13 35
e 14 35
e 22 35
e 5 36
e 6 36
e 10 36
e 32 36
e 33 36
e 34 36
e 3 37
e 4 37
e 7 37
e 14 37
e 17 37
e 25 37
e 27 37
e 28 37
e 30 37
e 32 37
e 1 38
e 5 38
e 32 38
e 3 39
e 10 39
e 12 39
e 13 39
e 14 39
e 16 39
e 21 39
e 22 39
e 25 39
e 28 39
e 31 39
e 4 40
e 6 40
e 8 40
e 9 40
e 10 40
e 11 40
e 13 40
e 15 40
e 23 40
e 29 40
e 9 41
e 14 41
e 25 41
e 38 41
e 40 41
e 4 42
e 5 42
e 18 42
e 26 42
e 30 42
e 40 42
e 3 43
e 5 43
e 13 43
e 15 43
e 17 43
e 19 43
e 22 43
e 32 43
e 33 43
e 2 44
e 8 44
e 10 44
e 11 44
e 12 44
e 14 44
e 15 44
e 23 44
e 38 44
e 1 45
e 10 45
e 12 45
e 13 45
e 15 45
e 17 45
e 21 45
e 24 45
e 31 45
e 32 45
e 33 45
e 35 45
e 3 46
e 5 46
e 15 46
e 37 46
e 40 46
e 1 47
e 11 47
e 21 47
e 23 47
e 30 47
e 45 47
e 46 47
e 5 48
e 7 48
e 8 48
e 14 48
e 16 48
e 20 48
e 29 48
e 32 48
e 45 48
e 46 48
e 7 49
e 8 49
e 30 49
e 36 49
e 47 49
e 1 50
e 3 50
e 4 50
e 12 50
e 21 50
e 23 50
e 24 50
e 26 50
e 27 50
e 34 50
e 43 50
e 4 51
e 7 51
e 12 51
e 15 51
e 18 51
e 34 51
e 35 51
e 39 51
e 43 51
e 44 51
e 4 52
e 14 52
e 19 52
e 35 52
e 39 52
e 41 52
e 2 53
e 3 53
e 6 53
e 8 53
e 13 53
e 16 53
e 23 53
e 24 53
e 25 53
e 32 53
e 33 53
e 37 53
e 39 53
e 47 53
e 48 53
e 7 54
e 16 54
e 26 54
e 30 54
e 33 54
e 36 54
e 40 54
e 50 54
e 51 54
e 3 55
e 5 55
e 7 55
e 17 55
e 18 55
e 19 55
e 23 55
e 24 55
e 28 55
e 34 55
e 37 55
e 39 55
e 40 55
e 44 55
e 46 55
e 49 55
e 51 55
e 3 56
e 5 56
e 6 56
e 9 56
e 10 56
e 12 56
e 16 56
e 19 56
e 20 56
e 28 56
e 29 56
e 34 56
e 35 56
e 44 56
e 52 56
e 55 56
e 5 57
e 10 57
e 41 57
e 2 58
e 6 58
e 8 58
e 15 58
e 16 58
e 17 58
e 21 58
e 23 58
e 24 58
e 26 58
e 27 58
e 28 58
e 29 58
e 33 58
e 37 58
e 52 58
e 1 59
e 7 59
e 11 59
e 13 59
e 14 59
e 17 59
e 24 59
e 25 59
e 26 59
e 42 59
e 54 59
e 56 59
e 57 59
e 17 60
e 20 60
e 32 60
e 37 60
e 39 60
e 40 60
e 42 60
e 51 60
e 3 61
e 4 61
e 9 61
e 11 61
e 13 61
e 14 61
e 16 61
e 20 61
e 25 61
e 34 61
e 37 61
e 44 61
e 47 61
e 51 61
e 53 61
e 56 61
e 58 61
e 3 62
e 4 62
e 5 62
e 8 62
e 11 62
e 21 62
e 24 62
e 30 62
e 35 62
e 36 62
e 39 62
e 51 62
e 53 62
e 55 62
e 6 63
e 8 63
e 18 63
e 19 63
e 29 63
e 35 63
e 43 63
e 45 63
e 58 63
e 60 63
e 61 63
e 2 64
e 6 64
e 7 64
e 11 64
e 13 64
e 14 64
e 25 64
e 35 64
e 39 64
e 44 64
e 50 64
e 57 64
e 16 65
e 17 65
e 20 65
e 21 65
e 24 65
e 36 65
e 47 65
e 53 65
e 57 65
e 7 66
e 12 66
e 13 66
e 16 66
e 22 66
e 27 66
e 38 66
e 40 66
e 50 66
e 53 66
e 54 66
e 62 66
e 2 67
e 20 67
e 30 67
e 40 67
e 44 67
e 48 67
e 55 67
e 59 67
e 64 67
e 65 67
e 2 68
e 13 68
e 19 68
e 38 68
e 43 68
e 46 68
e 52 68
e 54 68
e 67 68
e 2 69
e 5 69
e 7 69
e 8 69
e 16 69
e 17 69
e 18 69
e 22 69
e 24 69
e 26 69
e 28 69
e 30 69
e 52 69
e 58 69
e 65 69
e 1 70
e 9 70
e 18 70
e 20 70
e 22 70
e 37 70
e 39 70
e 41 70
e 46 70
e 52 70
e 63 70
e 64 70
e 65 70
e 68 70
